param set_len = 30;
param target := 66784453;
param values := [1] 4688611 [2] 2531674 [3] 5946219 [4] 171573 [5] 5062111 [6] 3927064 [7] 5171703 [8] 7895949 [9] 7819809 [10] 3250852 [11] 5281955 [12] 6939244 [13] 8257612 [14] 2260443 [15] 144776 [16] 981077 [17] 7553951 [18] 126294 [19] 4173198 [20] 1797918 [21] 3109922 [22] 2298074 [23] 7275120 [24] 4037273 [25] 7071465 [26] 2263803 [27] 7510749 [28] 377316 [29] 4233265 [30] 6399177 ;
